NAME: n400q40G.tsp, 400 nodes, semilla 666
COMMENT: Problema aleatorio de norma euclidea
DIMENSION: 400
CAPACITY: 40
EDGE_WEIGHT_TYPE: EUC_2D
NODE_COORD_SECTION
1   0.0000   0.0000
2 235.0000 -286.0000
3 -447.0000 493.0000
4  60.0000 350.0000
5 -467.0000 374.0000
6 500.0000 390.0000
7 169.0000 153.0000
8 -413.0000 -465.0000
9 254.0000 -350.0000
10 -15.0000 -331.0000
11 -493.0000 341.0000
12 -223.0000  27.0000
13 305.0000 -209.0000
14 -60.0000 443.0000
15  35.0000 331.0000
16 -487.0000 -365.0000
17 -310.0000 -272.0000
18 347.0000  65.0000
19 416.0000 161.0000
20 299.0000 -15.0000
21 -173.0000 157.0000
22 360.0000 -12.0000
23 -291.0000 -184.0000
24 341.0000 299.0000
25 -15.0000 474.0000
26 -294.0000 -340.0000
27 -328.0000 134.0000
28 245.0000 108.0000
29 -403.0000 -282.0000
30 474.0000 -250.0000
31 -378.0000 413.0000
32 -240.0000 363.0000
33 -251.0000 -387.0000
34 -217.0000  74.0000
35 -379.0000  43.0000
36 -329.0000  34.0000
37 -408.0000 -209.0000
38 226.0000 -290.0000
39 368.0000 464.0000
40 -204.0000 -424.0000
41 -347.0000  23.0000
42 -38.0000 -191.0000
43 -185.0000 -398.0000
44 474.0000 -137.0000
45 -331.0000 -291.0000
46 -111.0000 280.0000
47 -363.0000 484.0000
48 -486.0000   7.0000
49 460.0000 300.0000
50 389.0000 189.0000
51 184.0000 -214.0000
52 183.0000 -55.0000
53 -412.0000 140.0000
54 -71.0000 -141.0000
55   4.0000 -281.0000
56 -189.0000 -475.0000
57 -278.0000 -383.0000
58 298.0000  75.0000
59 -176.0000 232.0000
60 127.0000 -19.0000
61 183.0000 194.0000
62  98.0000   2.0000
63  31.0000 -145.0000
64 207.0000 -488.0000
65  40.0000 291.0000
66 408.0000 113.0000
67 -63.0000 256.0000
68 -309.0000 343.0000
69 -385.0000 204.0000
70 -235.0000 -396.0000
71 360.0000 -345.0000
72 -449.0000 107.0000
73 -304.0000 408.0000
74 -280.0000 -325.0000
75 -221.0000  32.0000
76 -52.0000  21.0000
77 -460.0000 439.0000
78  12.0000 444.0000
79 -194.0000 -179.0000
80 277.0000 -75.0000
81 -23.0000 156.0000
82 -155.0000 111.0000
83 368.0000 -468.0000
84 -477.0000  28.0000
85 -96.0000  47.0000
86 -41.0000 -168.0000
87  -5.0000 -441.0000
88  34.0000  -6.0000
89  46.0000 380.0000
90 -369.0000 385.0000
91  39.0000 386.0000
92 -310.0000 -48.0000
93 340.0000 -462.0000
94 167.0000 389.0000
95 384.0000 -336.0000
96 246.0000   7.0000
97 495.0000 -475.0000
98 -202.0000 -66.0000
99 316.0000 142.0000
100 160.0000 135.0000
101 -40.0000  29.0000
102 -338.0000  -8.0000
103 -338.0000 166.0000
104 283.0000 -271.0000
105 -19.0000 349.0000
106 -340.0000 236.0000
107 158.0000 198.0000
108 -48.0000 150.0000
109 -10.0000 421.0000
110 -436.0000 182.0000
111 -458.0000 343.0000
112 178.0000 -147.0000
113 -447.0000 168.0000
114 -406.0000 127.0000
115 -26.0000 -170.0000
116 -215.0000 -255.0000
117 -441.0000 414.0000
118 186.0000  19.0000
119 161.0000 -338.0000
120 -133.0000  33.0000
121 -19.0000 499.0000
122 297.0000 -484.0000
123 270.0000 -180.0000
124 -122.0000 -138.0000
125 332.0000 382.0000
126 361.0000 -114.0000
127 408.0000  34.0000
128 -321.0000 -264.0000
129 -383.0000 380.0000
130 -278.0000  25.0000
131 422.0000 -443.0000
132 -265.0000 -423.0000
133 141.0000  -6.0000
134 307.0000 -358.0000
135 -284.0000 -250.0000
136 -32.0000 -39.0000
137 494.0000 -458.0000
138  29.0000 306.0000
139 -368.0000  52.0000
140 388.0000 281.0000
141 244.0000  15.0000
142 417.0000 -106.0000
143 230.0000 -335.0000
144 207.0000 104.0000
145 -115.0000 360.0000
146 364.0000 453.0000
147 -140.0000 -39.0000
148 -416.0000  -8.0000
149 -278.0000 -70.0000
150 194.0000 -387.0000
151 366.0000 -490.0000
152 -220.0000 282.0000
153 -297.0000  95.0000
154 -496.0000 -290.0000
155 -380.0000 -321.0000
156 483.0000 -298.0000
157 -425.0000 279.0000
158 -487.0000 -451.0000
159 143.0000 -460.0000
160 -311.0000 -492.0000
161  62.0000 -162.0000
162 -134.0000 258.0000
163 -160.0000 203.0000
164 222.0000 -10.0000
165 -483.0000 -20.0000
166 478.0000 -293.0000
167 -191.0000 -458.0000
168 -193.0000 403.0000
169  66.0000 -468.0000
170 -237.0000 -145.0000
171 -271.0000 -69.0000
172 243.0000 -402.0000
173 141.0000 198.0000
174 -405.0000 292.0000
175 -364.0000  19.0000
176 206.0000 -324.0000
177  52.0000 141.0000
178 268.0000  81.0000
179 -199.0000 -413.0000
180 385.0000 -254.0000
181 -289.0000 434.0000
182 -280.0000 -275.0000
183 323.0000 -338.0000
184  95.0000 -163.0000
185   5.0000 135.0000
186 309.0000 358.0000
187  41.0000 257.0000
188 -246.0000 312.0000
189 -202.0000 396.0000
190 -466.0000  50.0000
191 -451.0000 -394.0000
192  77.0000 210.0000
193 -202.0000 197.0000
194 -232.0000 354.0000
195   1.0000 -62.0000
196  47.0000  77.0000
197 297.0000 482.0000
198 -129.0000 490.0000
199 -155.0000 366.0000
200 -458.0000  39.0000
201 449.0000 478.0000
202 -425.0000 -70.0000
203 -174.0000 -214.0000
204 418.0000 133.0000
205 369.0000 -439.0000
206 434.0000 -456.0000
207 146.0000 -211.0000
208 -298.0000 115.0000
209 214.0000 -234.0000
210  32.0000 228.0000
211 -114.0000 -242.0000
212  34.0000 -330.0000
213 464.0000 -386.0000
214 -421.0000 315.0000
215 -337.0000 367.0000
216 284.0000 106.0000
217 294.0000 -493.0000
218 -313.0000 236.0000
219 -363.0000 396.0000
220 -286.0000 -316.0000
221 183.0000 -251.0000
222  24.0000 214.0000
223 -29.0000  40.0000
224 -207.0000 346.0000
225 482.0000 440.0000
226 -116.0000 416.0000
227 -279.0000 -231.0000
228 482.0000 157.0000
229 143.0000 148.0000
230 -276.0000 -393.0000
231 -352.0000 -409.0000
232 -161.0000 -226.0000
233 -292.0000 460.0000
234 399.0000 268.0000
235 218.0000 417.0000
236 -334.0000 -466.0000
237 -463.0000 312.0000
238 -273.0000 363.0000
239 -240.0000 -256.0000
240  71.0000 421.0000
241 219.0000 411.0000
242 -462.0000 -347.0000
243 -111.0000 137.0000
244 -467.0000 -492.0000
245 -235.0000 -226.0000
246 275.0000 495.0000
247 330.0000 183.0000
248 201.0000 -350.0000
249 -174.0000 179.0000
250 -305.0000 -263.0000
251 128.0000 -377.0000
252 -157.0000 -109.0000
253 229.0000 -494.0000
254 -104.0000 480.0000
255 -400.0000 267.0000
256 103.0000 -428.0000
257 -151.0000 400.0000
258 -20.0000 -68.0000
259 -336.0000  16.0000
260 -51.0000 401.0000
261 497.0000 474.0000
262 -33.0000 130.0000
263 123.0000 -264.0000
264 210.0000  55.0000
265 -175.0000 -129.0000
266 485.0000 -84.0000
267 -183.0000 -456.0000
268 124.0000 370.0000
269 331.0000 -420.0000
270 -423.0000 380.0000
271 396.0000 -38.0000
272 -230.0000 -96.0000
273 -236.0000 -203.0000
274 -486.0000 -195.0000
275 -332.0000 -227.0000
276 -271.0000 388.0000
277 -220.0000 -398.0000
278 392.0000 226.0000
279 -276.0000 -408.0000
280  16.0000 -356.0000
281 313.0000 271.0000
282  75.0000 -132.0000
283 -149.0000 -149.0000
284 -298.0000 -308.0000
285 349.0000 -316.0000
286 -20.0000 -96.0000
287 244.0000  94.0000
288 -274.0000 161.0000
289 -445.0000 -477.0000
290 -22.0000 -226.0000
291 -354.0000 -313.0000
292 -278.0000 430.0000
293 254.0000 341.0000
294 375.0000 444.0000
295 -443.0000 241.0000
296 317.0000 250.0000
297 402.0000  21.0000
298 232.0000 -390.0000
299 383.0000 -32.0000
300 -457.0000 -480.0000
301 -407.0000 -197.0000
302 241.0000 -389.0000
303  56.0000 446.0000
304 -59.0000  30.0000
305 392.0000  99.0000
306  70.0000 210.0000
307 230.0000 -440.0000
308  87.0000 -409.0000
309 -169.0000 171.0000
310 -101.0000  82.0000
311 -442.0000 -79.0000
312 352.0000 -119.0000
313 244.0000 288.0000
314 -115.0000 253.0000
315 -243.0000 302.0000
316 233.0000 159.0000
317 -192.0000 -14.0000
318 190.0000 158.0000
319 -137.0000 481.0000
320 -305.0000 -232.0000
321 105.0000 -125.0000
322 -51.0000 431.0000
323 -132.0000 -129.0000
324  -8.0000 -122.0000
325 159.0000 476.0000
326 108.0000 -148.0000
327 -378.0000  90.0000
328 -326.0000 -352.0000
329 191.0000 -160.0000
330 -111.0000 398.0000
331 -403.0000 407.0000
332 -172.0000 -216.0000
333 -222.0000 111.0000
334 -411.0000 -79.0000
335 355.0000 345.0000
336 -422.0000 -122.0000
337 -201.0000 -427.0000
338 -64.0000 -450.0000
339 432.0000  84.0000
340 454.0000 -293.0000
341 -147.0000 -64.0000
342 379.0000 -207.0000
343 -305.0000 -349.0000
344 146.0000 303.0000
345 330.0000 -187.0000
346 -436.0000 436.0000
347 -50.0000 122.0000
348  -2.0000 284.0000
349 487.0000 -340.0000
350 125.0000 -165.0000
351 -198.0000 -299.0000
352 -40.0000 -335.0000
353 -150.0000 439.0000
354  46.0000 238.0000
355 377.0000 -425.0000
356  31.0000 368.0000
357 -198.0000 295.0000
358 -289.0000 -30.0000
359 -393.0000 -44.0000
360 -56.0000 311.0000
361 254.0000 -361.0000
362 -378.0000 248.0000
363 218.0000 431.0000
364 -39.0000 347.0000
365 -273.0000 -57.0000
366 -121.0000 325.0000
367 -403.0000 124.0000
368 289.0000 -88.0000
369  65.0000 -373.0000
370 223.0000 120.0000
371  48.0000 472.0000
372 -171.0000 -214.0000
373 -370.0000 433.0000
374 -432.0000 -297.0000
375 -153.0000 108.0000
376 252.0000 472.0000
377  59.0000 351.0000
378 472.0000  42.0000
379 151.0000 -161.0000
380 477.0000 -92.0000
381 185.0000 -126.0000
382 -70.0000 -394.0000
383 484.0000 -56.0000
384 -445.0000 -492.0000
385  61.0000  47.0000
386 339.0000 -317.0000
387 -395.0000 119.0000
388  32.0000  68.0000
389 -71.0000 295.0000
390 -426.0000 103.0000
391 -282.0000 125.0000
392 -361.0000 -239.0000
393 -423.0000 -421.0000
394 -319.0000 -255.0000
395 390.0000  -8.0000
396 -152.0000 471.0000
397 126.0000 428.0000
398 -250.0000 -82.0000
399 -369.0000 -64.0000
400  64.0000 -19.0000
DISPLAY_DATA_SECTION:
 1  250  250
 2  367  107
 3   26  496
 4  280  425
 5   16  437
 6  500  445
 7  334  326
 8   43   17
 9  377   75
10  242   84
11    3  420
12  138  263
13  402  145
14  220  471
15  267  415
16    6   67
17   95  114
18  423  282
19  458  330
20  399  242
21  163  328
22  430  244
23  104  158
24  420  399
25  242  487
26  103   80
27   86  317
28  372  304
29   48  109
30  487  125
31   61  456
32  130  431
33  124   56
34  141  287
35   60  271
36   85  267
37   46  145
38  363  105
39  434  482
40  148   38
41   76  261
42  231  154
43  157   51
44  487  181
45   84  104
46  194  390
47   68  492
48    7  253
49  480  400
50  444  344
51  342  143
52  341  222
53   44  320
54  214  179
55  252  109
56  155   12
57  111   58
58  399  287
59  162  366
60  313  240
61  341  347
62  299  251
63  265  177
64  353    6
65  270  395
66  454  306
67  218  378
68   95  421
69   57  352
70  132   52
71  430   77
72   25  303
73   98  454
74  110   87
75  139  266
76  224  260
77   20  469
78  256  472
79  153  160
80  388  212
81  238  328
82  172  305
83  434   16
84   11  264
85  202  273
86  229  166
87  247   29
88  267  247
89  273  440
90   65  442
91  269  443
92   95  226
93  420   19
94  333  444
95  442   82
96  373  253
97  497   12
98  149  217
99  408  321
100  330  317
101  230  264
102   81  246
103   81  333
104  391  114
105  240  424
106   80  368
107  329  349
108  226  325
109  245  460
110   32  341
111   21  421
112  339  176
113   26  334
114   47  313
115  237  165
116  142  122
117   29  457
118  343  259
119  330   81
120  183  266
121  240  499
122  398    8
123  385  160
124  189  181
125  416  441
126  430  193
127  454  267
128   89  118
129   58  440
130  111  262
131  461   28
132  117   38
133  320  247
134  403   71
135  108  125
136  234  230
137  497   21
138  264  403
139   66  276
140  444  390
141  372  257
142  458  197
143  365   82
144  353  302
145  192  430
146  432  476
147  180  230
148   42  246
149  111  215
150  347   56
151  433    5
152  140  391
153  101  297
154    2  105
155   60   89
156  491  101
157   37  389
158    6   24
159  321   20
160   94    4
161  281  169
162  183  379
163  170  351
164  361  245
165    8  240
166  489  103
167  154   21
168  153  451
169  283   16
170  131  177
171  114  215
172  371   49
173  320  349
174   47  396
175   68  259
176  353   88
177  276  320
178  384  290
179  150   43
180  442  123
181  105  467
182  110  112
183  411   81
184  297  168
185  252  317
186  404  429
187  270  378
188  127  406
189  149  448
190   17  275
191   24   53
192  288  355
193  149  348
194  134  427
195  250  219
196  273  288
197  398  491
198  185  495
199  172  433
200   21  269
201  474  489
202   37  215
203  163  143
204  459  316
205  434   30
206  467   22
207  323  144
208  101  307
209  357  133
210  266  364
211  193  129
212  267   85
213  482   57
214   39  407
215   81  433
216  392  303
217  397    3
218   93  368
219   68  448
220  107   92
221  341  124
222  262  357
223  235  270
224  146  423
225  491  470
226  192  458
227  110  134
228  491  328
229  321  324
230  112   53
231   74   45
232  169  137
233  104  480
234  449  384
235  359  458
236   83   17
237   18  406
238  113  431
239  130  122
240  285  460
241  359  455
242   19   76
243  194  318
244   16    4
245  132  137
246  387  497
247  415  341
248  350   75
249  163  339
250   97  118
251  314   61
252  171  195
253  364    3
254  198  490
255   50  383
256  301   36
257  174  450
258  240  216
259   82  258
260  224  450
261  498  487
262  233  315
263  311  118
264  355  277
265  162  185
266  492  208
267  158   22
268  312  435
269  415   40
270   38  440
271  448  231
272  135  202
273  132  148
274    7  152
275   84  136
276  114  444
277  140   51
278  446  363
279  112   46
280  258   72
281  406  385
282  287  184
283  175  175
284  101   96
285  424   92
286  240  202
287  372  297
288  113  330
289   27   11
290  239  137
291   73   93
292  111  465
293  377  420
294  437  472
295   28  370
296  408  375
297  451  260
298  366   55
299  441  234
300   21   10
301   46  151
302  370   55
303  278  473
304  220  265
305  446  299
306  285  355
307  365   30
308  293   45
309  165  335
310  199  291
311   29  210
312  426  190
313  372  394
314  192  376
315  128  401
316  366  329
317  154  243
318  345  329
319  181  490
320   97  134
321  302  187
322  224  465
323  184  185
324  246  189
325  329  488
326  304  176
327   61  295
328   87   74
329  345  170
330  194  449
331   48  453
332  164  142
333  139  305
334   44  210
335  427  422
336   39  189
337  149   36
338  218   25
339  466  292
340  477  103
341  176  218
342  439  146
343   97   75
344  323  401
345  415  156
346   32  468
347  225  311
348  249  392
349  493   80
350  312  167
351  151  100
352  230   82
353  175  469
354  273  369
355  438   37
356  265  434
357  151  397
358  105  235
359   53  228
360  222  405
361  377   69
362   61  374
363  359  465
364  230  423
365  113  221
366  189  412
367   48  312
368  394  206
369  282   63
370  361  310
371  274  486
372  164  143
373   65  466
374   34  101
375  173  304
376  376  486
377  279  425
378  486  271
379  325  169
380  488  204
381  342  187
382  215   53
383  492  222
384   27    4
385  280  273
386  419   91
387   52  309
388  266  284
389  214  397
390   37  301
391  109  312
392   69  130
393   38   39
394   90  122
395  445  246
396  174  485
397  313  464
398  125  209
399   65  218
400  282  240
DEMAND_SECTION
1 6
2 -1
3 -7
4 1
5 -4
6 8
7 3
8 -7
9 -7
10 -4
11 5
12 6
13 -7
14 0
15 -9
16 -3
17 9
18 6
19 0
20 -5
21 2
22 -5
23 -2
24 0
25 3
26 -5
27 -1
28 -2
29 2
30 9
31 -4
32 -7
33 -1
34 2
35 -6
36 0
37 -9
38 0
39 2
40 -2
41 3
42 -5
43 -9
44 2
45 10
46 10
47 -6
48 5
49 3
50 7
51 -7
52 -7
53 -5
54 -3
55 -8
56 -5
57 8
58 0
59 0
60 -4
61 1
62 -4
63 5
64 -5
65 7
66 -5
67 -3
68 -6
69 5
70 -4
71 -9
72 -6
73 2
74 0
75 -9
76 -1
77 9
78 0
79 0
80 7
81 6
82 6
83 8
84 4
85 -4
86 6
87 -4
88 -1
89 8
90 7
91 -8
92 -6
93 7
94 5
95 0
96 0
97 6
98 -6
99 0
100 -5
101 9
102 0
103 0
104 -9
105 -7
106 8
107 0
108 2
109 -7
110 -10
111 0
112 0
113 8
114 7
115 0
116 -2
117 9
118 -2
119 3
120 -6
121 1
122 -1
123 -5
124 6
125 2
126 -3
127 5
128 -3
129 2
130 -4
131 -5
132 8
133 -6
134 7
135 6
136 4
137 -7
138 -7
139 8
140 0
141 -6
142 2
143 9
144 -8
145 9
146 1
147 -4
148 -9
149 3
150 -1
151 8
152 -4
153 9
154 -8
155 9
156 -1
157 8
158 2
159 -7
160 9
161 7
162 -9
163 5
164 1
165 -3
166 -8
167 -1
168 0
169 -2
170 8
171 10
172 3
173 7
174 -9
175 -7
176 1
177 1
178 -7
179 -6
180 8
181 -5
182 1
183 0
184 -6
185 -1
186 6
187 3
188 6
189 -9
190 -2
191 -1
192 -5
193 -2
194 3
195 4
196 -9
197 2
198 8
199 -8
200 -5
201 6
202 5
203 5
204 -1
205 -10
206 3
207 0
208 3
209 0
210 -3
211 -7
212 6
213 -9
214 -1
215 -1
216 -3
217 3
218 -9
219 0
220 7
221 1
222 -3
223 2
224 -7
225 6
226 -8
227 -4
228 -7
229 -9
230 2
231 2
232 -3
233 -10
234 8
235 3
236 -2
237 0
238 -9
239 -1
240 9
241 7
242 -9
243 -7
244 -10
245 2
246 9
247 5
248 4
249 -1
250 6
251 -1
252 -10
253 0
254 -2
255 -4
256 -8
257 0
258 1
259 4
260 0
261 -2
262 5
263 0
264 4
265 0
266 8
267 2
268 -7
269 0
270 8
271 2
272 -3
273 -2
274 -6
275 -1
276 7
277 3
278 -9
279 8
280 0
281 -9
282 5
283 3
284 10
285 9
286 -3
287 -6
288 9
289 3
290 -4
291 -3
292 -1
293 -6
294 0
295 9
296 8
297 7
298 0
299 -2
300 1
301 8
302 4
303 -4
304 5
305 2
306 5
307 2
308 -2
309 -4
310 7
311 3
312 7
313 5
314 6
315 0
316 0
317 -7
318 -4
319 2
320 -7
321 7
322 -6
323 2
324 10
325 0
326 -4
327 0
328 -4
329 2
330 0
331 -5
332 -2
333 0
334 -7
335 3
336 0
337 1
338 7
339 0
340 -2
341 3
342 9
343 7
344 -2
345 0
346 8
347 9
348 3
349 -2
350 1
351 -3
352 -10
353 -2
354 -3
355 0
356 -4
357 -2
358 -1
359 -4
360 6
361 7
362 3
363 6
364 0
365 5
366 8
367 3
368 0
369 -1
370 -5
371 3
372 8
373 -5
374 6
375 -3
376 -3
377 5
378 4
379 5
380 -8
381 1
382 -1
383 -10
384 4
385 0
386 0
387 0
388 -6
389 -10
390 -3
391 -6
392 -4
393 -10
394 -5
395 -2
396 2
397 -8
398 -1
399 7
400 -5
EOF